(set-option :produce-models true)
(set-logic QF_LRA)
(set-info :notes | Strip-packing problem.|)
(declare-fun x0 () Real)
(declare-fun y0 () Real)
(declare-fun x1 () Real)
(declare-fun y1 () Real)
(declare-fun x2 () Real)
(declare-fun y2 () Real)
(declare-fun x3 () Real)
(declare-fun y3 () Real)
(declare-fun x4 () Real)
(declare-fun y4 () Real)
(declare-fun x5 () Real)
(declare-fun y5 () Real)
(declare-fun x6 () Real)
(declare-fun y6 () Real)
(declare-fun x7 () Real)
(declare-fun y7 () Real)
(declare-fun x8 () Real)
(declare-fun y8 () Real)
(declare-fun x9 () Real)
(declare-fun y9 () Real)
(declare-fun x10 () Real)
(declare-fun y10 () Real)
(declare-fun x11 () Real)
(declare-fun y11 () Real)
(declare-fun x12 () Real)
(declare-fun y12 () Real)
(declare-fun x13 () Real)
(declare-fun y13 () Real)
(declare-fun x14 () Real)
(declare-fun y14 () Real)
(declare-fun z () Real)
(declare-fun c () Real)
(assert (and (= c z) (and (>= x0 0) 
(and (>= y0 0) 
(and (>= x1 0) 
(and (>= y1 0) 
(and (>= x2 0) 
(and (>= y2 0) 
(and (>= x3 0) 
(and (>= y3 0) 
(and (>= x4 0) 
(and (>= y4 0) 
(and (>= x5 0) 
(and (>= y5 0) 
(and (>= x6 0) 
(and (>= y6 0) 
(and (>= x7 0) 
(and (>= y7 0) 
(and (>= x8 0) 
(and (>= y8 0) 
(and (>= x9 0) 
(and (>= y9 0) 
(and (>= x10 0) 
(and (>= y10 0) 
(and (>= x11 0) 
(and (>= y11 0) 
(and (>= x12 0) 
(and (>= y12 0) 
(and (>= x13 0) 
(and (>= y13 0) 
(and (>= x14 0) 
(and (>= y14 0) 
(and (>= z 0) 
(and (>= c 0) 
(and (<= (+ x0 0.10170203) z) 
(and (<= 0.9191853528 y0) 
(and (<= y0 1.9364916731) 
(and (<= x0 (- 4.2929341753 0.10170203)) 
(and (>= x0 0) 
(and (<= (+ x1 0.578244605) z) 
(and (<= 0.9122876169 y1) 
(and (<= y1 1.9364916731) 
(and (<= x1 (- 4.2929341753 0.578244605)) 
(and (>= x1 0) 
(and (<= (+ x2 0.7619877975) z) 
(and (<= 0.889052472 y2) 
(and (<= y2 1.9364916731) 
(and (<= x2 (- 4.2929341753 0.7619877975)) 
(and (>= x2 0) 
(and (<= (+ x3 0.2749346314) z) 
(and (<= 0.8428428384 y3) 
(and (<= y3 1.9364916731) 
(and (<= x3 (- 4.2929341753 0.2749346314)) 
(and (>= x3 0) 
(and (<= (+ x4 0.8983305624) z) 
(and (<= 0.708821921 y4) 
(and (<= y4 1.9364916731) 
(and (<= x4 (- 4.2929341753 0.8983305624)) 
(and (>= x4 0) 
(and (<= (+ x5 0.5369926422) z) 
(and (<= 0.6266880686 y5) 
(and (<= y5 1.9364916731) 
(and (<= x5 (- 4.2929341753 0.5369926422)) 
(and (>= x5 0) 
(and (<= (+ x6 0.9591042345) z) 
(and (<= 0.6209803956 y6) 
(and (<= y6 1.9364916731) 
(and (<= x6 (- 4.2929341753 0.9591042345)) 
(and (>= x6 0) 
(and (<= (+ x7 0.2965196077) z) 
(and (<= 0.5479790795 y7) 
(and (<= y7 1.9364916731) 
(and (<= x7 (- 4.2929341753 0.2965196077)) 
(and (>= x7 0) 
(and (<= (+ x8 0.9935649459) z) 
(and (<= 0.4972179199 y8) 
(and (<= y8 1.9364916731) 
(and (<= x8 (- 4.2929341753 0.9935649459)) 
(and (>= x8 0) 
(and (<= (+ x9 0.4457295318) z) 
(and (<= 0.3833499573 y9) 
(and (<= y9 1.9364916731) 
(and (<= x9 (- 4.2929341753 0.4457295318)) 
(and (>= x9 0) 
(and (<= (+ x10 0.3257639987) z) 
(and (<= 0.2742936478 y10) 
(and (<= y10 1.9364916731) 
(and (<= x10 (- 4.2929341753 0.3257639987)) 
(and (>= x10 0) 
(and (<= (+ x11 0.6163351551) z) 
(and (<= 0.2539047831 y11) 
(and (<= y11 1.9364916731) 
(and (<= x11 (- 4.2929341753 0.6163351551)) 
(and (>= x11 0) 
(and (<= (+ x12 0.4095715429) z) 
(and (<= 0.2257905328 y12) 
(and (<= y12 1.9364916731) 
(and (<= x12 (- 4.2929341753 0.4095715429)) 
(and (>= x12 0) 
(and (<= (+ x13 0.8614605875) z) 
(and (<= 0.13343815 y13) 
(and (<= y13 1.9364916731) 
(and (<= x13 (- 4.2929341753 0.8614605875)) 
(and (>= x13 0) 
(and (<= (+ x14 0.4937309483) z) 
(and (<= 0.0761702136 y14) 
(and (<= y14 1.9364916731) 
(and (<= x14 (- 4.2929341753 0.4937309483)) 
(and (>= x14 0) 
(and (<= c 4.2929341753) 
(and (or (<= (+ x0 0.10170203) x1) (or (<= (+ x1 0.578244605) x0) (or (>= (- y0 0.9191853528) y1) (or (>= (- y1 0.9122876169) y0))))) 
(and (or (<= (+ x0 0.10170203) x2) (or (<= (+ x2 0.7619877975) x0) (or (>= (- y0 0.9191853528) y2) (or (>= (- y2 0.889052472) y0))))) 
(and (or (<= (+ x0 0.10170203) x3) (or (<= (+ x3 0.2749346314) x0) (or (>= (- y0 0.9191853528) y3) (or (>= (- y3 0.8428428384) y0))))) 
(and (or (<= (+ x0 0.10170203) x4) (or (<= (+ x4 0.8983305624) x0) (or (>= (- y0 0.9191853528) y4) (or (>= (- y4 0.708821921) y0))))) 
(and (or (<= (+ x0 0.10170203) x5) (or (<= (+ x5 0.5369926422) x0) (or (>= (- y0 0.9191853528) y5) (or (>= (- y5 0.6266880686) y0))))) 
(and (or (<= (+ x0 0.10170203) x6) (or (<= (+ x6 0.9591042345) x0) (or (>= (- y0 0.9191853528) y6) (or (>= (- y6 0.6209803956) y0))))) 
(and (or (<= (+ x0 0.10170203) x7) (or (<= (+ x7 0.2965196077) x0) (or (>= (- y0 0.9191853528) y7) (or (>= (- y7 0.5479790795) y0))))) 
(and (or (<= (+ x0 0.10170203) x8) (or (<= (+ x8 0.9935649459) x0) (or (>= (- y0 0.9191853528) y8) (or (>= (- y8 0.4972179199) y0))))) 
(and (or (<= (+ x0 0.10170203) x9) (or (<= (+ x9 0.4457295318) x0) (or (>= (- y0 0.9191853528) y9) (or (>= (- y9 0.3833499573) y0))))) 
(and (or (<= (+ x0 0.10170203) x10) (or (<= (+ x10 0.3257639987) x0) (or (>= (- y0 0.9191853528) y10) (or (>= (- y10 0.2742936478) y0))))) 
(and (or (<= (+ x0 0.10170203) x11) (or (<= (+ x11 0.6163351551) x0) (or (>= (- y0 0.9191853528) y11) (or (>= (- y11 0.2539047831) y0))))) 
(and (or (<= (+ x0 0.10170203) x12) (or (<= (+ x12 0.4095715429) x0) (or (>= (- y0 0.9191853528) y12) (or (>= (- y12 0.2257905328) y0))))) 
(and (or (<= (+ x0 0.10170203) x13) (or (<= (+ x13 0.8614605875) x0) (or (>= (- y0 0.9191853528) y13) (or (>= (- y13 0.13343815) y0))))) 
(and (or (<= (+ x0 0.10170203) x14) (or (<= (+ x14 0.4937309483) x0) (or (>= (- y0 0.9191853528) y14) (or (>= (- y14 0.0761702136) y0))))) 
(and (or (<= (+ x1 0.578244605) x2) (or (<= (+ x2 0.7619877975) x1) (or (>= (- y1 0.9122876169) y2) (or (>= (- y2 0.889052472) y1))))) 
(and (or (<= (+ x1 0.578244605) x3) (or (<= (+ x3 0.2749346314) x1) (or (>= (- y1 0.9122876169) y3) (or (>= (- y3 0.8428428384) y1))))) 
(and (or (<= (+ x1 0.578244605) x4) (or (<= (+ x4 0.8983305624) x1) (or (>= (- y1 0.9122876169) y4) (or (>= (- y4 0.708821921) y1))))) 
(and (or (<= (+ x1 0.578244605) x5) (or (<= (+ x5 0.5369926422) x1) (or (>= (- y1 0.9122876169) y5) (or (>= (- y5 0.6266880686) y1))))) 
(and (or (<= (+ x1 0.578244605) x6) (or (<= (+ x6 0.9591042345) x1) (or (>= (- y1 0.9122876169) y6) (or (>= (- y6 0.6209803956) y1))))) 
(and (or (<= (+ x1 0.578244605) x7) (or (<= (+ x7 0.2965196077) x1) (or (>= (- y1 0.9122876169) y7) (or (>= (- y7 0.5479790795) y1))))) 
(and (or (<= (+ x1 0.578244605) x8) (or (<= (+ x8 0.9935649459) x1) (or (>= (- y1 0.9122876169) y8) (or (>= (- y8 0.4972179199) y1))))) 
(and (or (<= (+ x1 0.578244605) x9) (or (<= (+ x9 0.4457295318) x1) (or (>= (- y1 0.9122876169) y9) (or (>= (- y9 0.3833499573) y1))))) 
(and (or (<= (+ x1 0.578244605) x10) (or (<= (+ x10 0.3257639987) x1) (or (>= (- y1 0.9122876169) y10) (or (>= (- y10 0.2742936478) y1))))) 
(and (or (<= (+ x1 0.578244605) x11) (or (<= (+ x11 0.6163351551) x1) (or (>= (- y1 0.9122876169) y11) (or (>= (- y11 0.2539047831) y1))))) 
(and (or (<= (+ x1 0.578244605) x12) (or (<= (+ x12 0.4095715429) x1) (or (>= (- y1 0.9122876169) y12) (or (>= (- y12 0.2257905328) y1))))) 
(and (or (<= (+ x1 0.578244605) x13) (or (<= (+ x13 0.8614605875) x1) (or (>= (- y1 0.9122876169) y13) (or (>= (- y13 0.13343815) y1))))) 
(and (or (<= (+ x1 0.578244605) x14) (or (<= (+ x14 0.4937309483) x1) (or (>= (- y1 0.9122876169) y14) (or (>= (- y14 0.0761702136) y1))))) 
(and (or (<= (+ x2 0.7619877975) x3) (or (<= (+ x3 0.2749346314) x2) (or (>= (- y2 0.889052472) y3) (or (>= (- y3 0.8428428384) y2))))) 
(and (or (<= (+ x2 0.7619877975) x4) (or (<= (+ x4 0.8983305624) x2) (or (>= (- y2 0.889052472) y4) (or (>= (- y4 0.708821921) y2))))) 
(and (or (<= (+ x2 0.7619877975) x5) (or (<= (+ x5 0.5369926422) x2) (or (>= (- y2 0.889052472) y5) (or (>= (- y5 0.6266880686) y2))))) 
(and (or (<= (+ x2 0.7619877975) x6) (or (<= (+ x6 0.9591042345) x2) (or (>= (- y2 0.889052472) y6) (or (>= (- y6 0.6209803956) y2))))) 
(and (or (<= (+ x2 0.7619877975) x7) (or (<= (+ x7 0.2965196077) x2) (or (>= (- y2 0.889052472) y7) (or (>= (- y7 0.5479790795) y2))))) 
(and (or (<= (+ x2 0.7619877975) x8) (or (<= (+ x8 0.9935649459) x2) (or (>= (- y2 0.889052472) y8) (or (>= (- y8 0.4972179199) y2))))) 
(and (or (<= (+ x2 0.7619877975) x9) (or (<= (+ x9 0.4457295318) x2) (or (>= (- y2 0.889052472) y9) (or (>= (- y9 0.3833499573) y2))))) 
(and (or (<= (+ x2 0.7619877975) x10) (or (<= (+ x10 0.3257639987) x2) (or (>= (- y2 0.889052472) y10) (or (>= (- y10 0.2742936478) y2))))) 
(and (or (<= (+ x2 0.7619877975) x11) (or (<= (+ x11 0.6163351551) x2) (or (>= (- y2 0.889052472) y11) (or (>= (- y11 0.2539047831) y2))))) 
(and (or (<= (+ x2 0.7619877975) x12) (or (<= (+ x12 0.4095715429) x2) (or (>= (- y2 0.889052472) y12) (or (>= (- y12 0.2257905328) y2))))) 
(and (or (<= (+ x2 0.7619877975) x13) (or (<= (+ x13 0.8614605875) x2) (or (>= (- y2 0.889052472) y13) (or (>= (- y13 0.13343815) y2))))) 
(and (or (<= (+ x2 0.7619877975) x14) (or (<= (+ x14 0.4937309483) x2) (or (>= (- y2 0.889052472) y14) (or (>= (- y14 0.0761702136) y2))))) 
(and (or (<= (+ x3 0.2749346314) x4) (or (<= (+ x4 0.8983305624) x3) (or (>= (- y3 0.8428428384) y4) (or (>= (- y4 0.708821921) y3))))) 
(and (or (<= (+ x3 0.2749346314) x5) (or (<= (+ x5 0.5369926422) x3) (or (>= (- y3 0.8428428384) y5) (or (>= (- y5 0.6266880686) y3))))) 
(and (or (<= (+ x3 0.2749346314) x6) (or (<= (+ x6 0.9591042345) x3) (or (>= (- y3 0.8428428384) y6) (or (>= (- y6 0.6209803956) y3))))) 
(and (or (<= (+ x3 0.2749346314) x7) (or (<= (+ x7 0.2965196077) x3) (or (>= (- y3 0.8428428384) y7) (or (>= (- y7 0.5479790795) y3))))) 
(and (or (<= (+ x3 0.2749346314) x8) (or (<= (+ x8 0.9935649459) x3) (or (>= (- y3 0.8428428384) y8) (or (>= (- y8 0.4972179199) y3))))) 
(and (or (<= (+ x3 0.2749346314) x9) (or (<= (+ x9 0.4457295318) x3) (or (>= (- y3 0.8428428384) y9) (or (>= (- y9 0.3833499573) y3))))) 
(and (or (<= (+ x3 0.2749346314) x10) (or (<= (+ x10 0.3257639987) x3) (or (>= (- y3 0.8428428384) y10) (or (>= (- y10 0.2742936478) y3))))) 
(and (or (<= (+ x3 0.2749346314) x11) (or (<= (+ x11 0.6163351551) x3) (or (>= (- y3 0.8428428384) y11) (or (>= (- y11 0.2539047831) y3))))) 
(and (or (<= (+ x3 0.2749346314) x12) (or (<= (+ x12 0.4095715429) x3) (or (>= (- y3 0.8428428384) y12) (or (>= (- y12 0.2257905328) y3))))) 
(and (or (<= (+ x3 0.2749346314) x13) (or (<= (+ x13 0.8614605875) x3) (or (>= (- y3 0.8428428384) y13) (or (>= (- y13 0.13343815) y3))))) 
(and (or (<= (+ x3 0.2749346314) x14) (or (<= (+ x14 0.4937309483) x3) (or (>= (- y3 0.8428428384) y14) (or (>= (- y14 0.0761702136) y3))))) 
(and (or (<= (+ x4 0.8983305624) x5) (or (<= (+ x5 0.5369926422) x4) (or (>= (- y4 0.708821921) y5) (or (>= (- y5 0.6266880686) y4))))) 
(and (or (<= (+ x4 0.8983305624) x6) (or (<= (+ x6 0.9591042345) x4) (or (>= (- y4 0.708821921) y6) (or (>= (- y6 0.6209803956) y4))))) 
(and (or (<= (+ x4 0.8983305624) x7) (or (<= (+ x7 0.2965196077) x4) (or (>= (- y4 0.708821921) y7) (or (>= (- y7 0.5479790795) y4))))) 
(and (or (<= (+ x4 0.8983305624) x8) (or (<= (+ x8 0.9935649459) x4) (or (>= (- y4 0.708821921) y8) (or (>= (- y8 0.4972179199) y4))))) 
(and (or (<= (+ x4 0.8983305624) x9) (or (<= (+ x9 0.4457295318) x4) (or (>= (- y4 0.708821921) y9) (or (>= (- y9 0.3833499573) y4))))) 
(and (or (<= (+ x4 0.8983305624) x10) (or (<= (+ x10 0.3257639987) x4) (or (>= (- y4 0.708821921) y10) (or (>= (- y10 0.2742936478) y4))))) 
(and (or (<= (+ x4 0.8983305624) x11) (or (<= (+ x11 0.6163351551) x4) (or (>= (- y4 0.708821921) y11) (or (>= (- y11 0.2539047831) y4))))) 
(and (or (<= (+ x4 0.8983305624) x12) (or (<= (+ x12 0.4095715429) x4) (or (>= (- y4 0.708821921) y12) (or (>= (- y12 0.2257905328) y4))))) 
(and (or (<= (+ x4 0.8983305624) x13) (or (<= (+ x13 0.8614605875) x4) (or (>= (- y4 0.708821921) y13) (or (>= (- y13 0.13343815) y4))))) 
(and (or (<= (+ x4 0.8983305624) x14) (or (<= (+ x14 0.4937309483) x4) (or (>= (- y4 0.708821921) y14) (or (>= (- y14 0.0761702136) y4))))) 
(and (or (<= (+ x5 0.5369926422) x6) (or (<= (+ x6 0.9591042345) x5) (or (>= (- y5 0.6266880686) y6) (or (>= (- y6 0.6209803956) y5))))) 
(and (or (<= (+ x5 0.5369926422) x7) (or (<= (+ x7 0.2965196077) x5) (or (>= (- y5 0.6266880686) y7) (or (>= (- y7 0.5479790795) y5))))) 
(and (or (<= (+ x5 0.5369926422) x8) (or (<= (+ x8 0.9935649459) x5) (or (>= (- y5 0.6266880686) y8) (or (>= (- y8 0.4972179199) y5))))) 
(and (or (<= (+ x5 0.5369926422) x9) (or (<= (+ x9 0.4457295318) x5) (or (>= (- y5 0.6266880686) y9) (or (>= (- y9 0.3833499573) y5))))) 
(and (or (<= (+ x5 0.5369926422) x10) (or (<= (+ x10 0.3257639987) x5) (or (>= (- y5 0.6266880686) y10) (or (>= (- y10 0.2742936478) y5))))) 
(and (or (<= (+ x5 0.5369926422) x11) (or (<= (+ x11 0.6163351551) x5) (or (>= (- y5 0.6266880686) y11) (or (>= (- y11 0.2539047831) y5))))) 
(and (or (<= (+ x5 0.5369926422) x12) (or (<= (+ x12 0.4095715429) x5) (or (>= (- y5 0.6266880686) y12) (or (>= (- y12 0.2257905328) y5))))) 
(and (or (<= (+ x5 0.5369926422) x13) (or (<= (+ x13 0.8614605875) x5) (or (>= (- y5 0.6266880686) y13) (or (>= (- y13 0.13343815) y5))))) 
(and (or (<= (+ x5 0.5369926422) x14) (or (<= (+ x14 0.4937309483) x5) (or (>= (- y5 0.6266880686) y14) (or (>= (- y14 0.0761702136) y5))))) 
(and (or (<= (+ x6 0.9591042345) x7) (or (<= (+ x7 0.2965196077) x6) (or (>= (- y6 0.6209803956) y7) (or (>= (- y7 0.5479790795) y6))))) 
(and (or (<= (+ x6 0.9591042345) x8) (or (<= (+ x8 0.9935649459) x6) (or (>= (- y6 0.6209803956) y8) (or (>= (- y8 0.4972179199) y6))))) 
(and (or (<= (+ x6 0.9591042345) x9) (or (<= (+ x9 0.4457295318) x6) (or (>= (- y6 0.6209803956) y9) (or (>= (- y9 0.3833499573) y6))))) 
(and (or (<= (+ x6 0.9591042345) x10) (or (<= (+ x10 0.3257639987) x6) (or (>= (- y6 0.6209803956) y10) (or (>= (- y10 0.2742936478) y6))))) 
(and (or (<= (+ x6 0.9591042345) x11) (or (<= (+ x11 0.6163351551) x6) (or (>= (- y6 0.6209803956) y11) (or (>= (- y11 0.2539047831) y6))))) 
(and (or (<= (+ x6 0.9591042345) x12) (or (<= (+ x12 0.4095715429) x6) (or (>= (- y6 0.6209803956) y12) (or (>= (- y12 0.2257905328) y6))))) 
(and (or (<= (+ x6 0.9591042345) x13) (or (<= (+ x13 0.8614605875) x6) (or (>= (- y6 0.6209803956) y13) (or (>= (- y13 0.13343815) y6))))) 
(and (or (<= (+ x6 0.9591042345) x14) (or (<= (+ x14 0.4937309483) x6) (or (>= (- y6 0.6209803956) y14) (or (>= (- y14 0.0761702136) y6))))) 
(and (or (<= (+ x7 0.2965196077) x8) (or (<= (+ x8 0.9935649459) x7) (or (>= (- y7 0.5479790795) y8) (or (>= (- y8 0.4972179199) y7))))) 
(and (or (<= (+ x7 0.2965196077) x9) (or (<= (+ x9 0.4457295318) x7) (or (>= (- y7 0.5479790795) y9) (or (>= (- y9 0.3833499573) y7))))) 
(and (or (<= (+ x7 0.2965196077) x10) (or (<= (+ x10 0.3257639987) x7) (or (>= (- y7 0.5479790795) y10) (or (>= (- y10 0.2742936478) y7))))) 
(and (or (<= (+ x7 0.2965196077) x11) (or (<= (+ x11 0.6163351551) x7) (or (>= (- y7 0.5479790795) y11) (or (>= (- y11 0.2539047831) y7))))) 
(and (or (<= (+ x7 0.2965196077) x12) (or (<= (+ x12 0.4095715429) x7) (or (>= (- y7 0.5479790795) y12) (or (>= (- y12 0.2257905328) y7))))) 
(and (or (<= (+ x7 0.2965196077) x13) (or (<= (+ x13 0.8614605875) x7) (or (>= (- y7 0.5479790795) y13) (or (>= (- y13 0.13343815) y7))))) 
(and (or (<= (+ x7 0.2965196077) x14) (or (<= (+ x14 0.4937309483) x7) (or (>= (- y7 0.5479790795) y14) (or (>= (- y14 0.0761702136) y7))))) 
(and (or (<= (+ x8 0.9935649459) x9) (or (<= (+ x9 0.4457295318) x8) (or (>= (- y8 0.4972179199) y9) (or (>= (- y9 0.3833499573) y8))))) 
(and (or (<= (+ x8 0.9935649459) x10) (or (<= (+ x10 0.3257639987) x8) (or (>= (- y8 0.4972179199) y10) (or (>= (- y10 0.2742936478) y8))))) 
(and (or (<= (+ x8 0.9935649459) x11) (or (<= (+ x11 0.6163351551) x8) (or (>= (- y8 0.4972179199) y11) (or (>= (- y11 0.2539047831) y8))))) 
(and (or (<= (+ x8 0.9935649459) x12) (or (<= (+ x12 0.4095715429) x8) (or (>= (- y8 0.4972179199) y12) (or (>= (- y12 0.2257905328) y8))))) 
(and (or (<= (+ x8 0.9935649459) x13) (or (<= (+ x13 0.8614605875) x8) (or (>= (- y8 0.4972179199) y13) (or (>= (- y13 0.13343815) y8))))) 
(and (or (<= (+ x8 0.9935649459) x14) (or (<= (+ x14 0.4937309483) x8) (or (>= (- y8 0.4972179199) y14) (or (>= (- y14 0.0761702136) y8))))) 
(and (or (<= (+ x9 0.4457295318) x10) (or (<= (+ x10 0.3257639987) x9) (or (>= (- y9 0.3833499573) y10) (or (>= (- y10 0.2742936478) y9))))) 
(and (or (<= (+ x9 0.4457295318) x11) (or (<= (+ x11 0.6163351551) x9) (or (>= (- y9 0.3833499573) y11) (or (>= (- y11 0.2539047831) y9))))) 
(and (or (<= (+ x9 0.4457295318) x12) (or (<= (+ x12 0.4095715429) x9) (or (>= (- y9 0.3833499573) y12) (or (>= (- y12 0.2257905328) y9))))) 
(and (or (<= (+ x9 0.4457295318) x13) (or (<= (+ x13 0.8614605875) x9) (or (>= (- y9 0.3833499573) y13) (or (>= (- y13 0.13343815) y9))))) 
(and (or (<= (+ x9 0.4457295318) x14) (or (<= (+ x14 0.4937309483) x9) (or (>= (- y9 0.3833499573) y14) (or (>= (- y14 0.0761702136) y9))))) 
(and (or (<= (+ x10 0.3257639987) x11) (or (<= (+ x11 0.6163351551) x10) (or (>= (- y10 0.2742936478) y11) (or (>= (- y11 0.2539047831) y10))))) 
(and (or (<= (+ x10 0.3257639987) x12) (or (<= (+ x12 0.4095715429) x10) (or (>= (- y10 0.2742936478) y12) (or (>= (- y12 0.2257905328) y10))))) 
(and (or (<= (+ x10 0.3257639987) x13) (or (<= (+ x13 0.8614605875) x10) (or (>= (- y10 0.2742936478) y13) (or (>= (- y13 0.13343815) y10))))) 
(and (or (<= (+ x10 0.3257639987) x14) (or (<= (+ x14 0.4937309483) x10) (or (>= (- y10 0.2742936478) y14) (or (>= (- y14 0.0761702136) y10))))) 
(and (or (<= (+ x11 0.6163351551) x12) (or (<= (+ x12 0.4095715429) x11) (or (>= (- y11 0.2539047831) y12) (or (>= (- y12 0.2257905328) y11))))) 
(and (or (<= (+ x11 0.6163351551) x13) (or (<= (+ x13 0.8614605875) x11) (or (>= (- y11 0.2539047831) y13) (or (>= (- y13 0.13343815) y11))))) 
(and (or (<= (+ x11 0.6163351551) x14) (or (<= (+ x14 0.4937309483) x11) (or (>= (- y11 0.2539047831) y14) (or (>= (- y14 0.0761702136) y11))))) 
(and (or (<= (+ x12 0.4095715429) x13) (or (<= (+ x13 0.8614605875) x12) (or (>= (- y12 0.2257905328) y13) (or (>= (- y13 0.13343815) y12))))) 
(and (or (<= (+ x12 0.4095715429) x14) (or (<= (+ x14 0.4937309483) x12) (or (>= (- y12 0.2257905328) y14) (or (>= (- y14 0.0761702136) y12))))) 
(and (or (<= (+ x13 0.8614605875) x14) (or (<= (+ x14 0.4937309483) x13) (or (>= (- y13 0.13343815) y14) (or (>= (- y14 0.0761702136) y13))))) )))))))))))))))))))))))))))))))))))))))))))))))))))))))))))))))))))))))))))))))))))))))))))))))))))))))))))))))))))))))))))))))))))))))))))))))))))))))))))))))))))))))))))))))))))))))))))))))))))))))))))))))))))))))
(minimize c)
(check-sat)
(get-objectives)
(exit)
